problems/csplib-prob015/SchursLemma-models/noch/O2/lingeling/model_1_2-3-12-solution000001.eprime-solution
language ESSENCE' 1.0

letting boxes_PartitionAsSet_ExplicitR6_ExplicitVarSizeWithDummy be
        [[1, 3, 6, 8, 10, 12, 13, 13, 13, 13, 13, 13; int(1..12)],
         [2, 5, 11, 13, 13, 13, 13, 13, 13, 13, 13, 13; int(1..12)],
         [4, 7, 9, 13, 13, 13, 13, 13, 13, 13, 13, 13; int(1..12)]; int(1..3)]
